Gurobi Optimizer version 9.1.2 build v9.1.2rc0 (linux64)
Thread count: 36 physical cores, 72 logical processors, using up to 32 threads
Optimize a model with 12 rows, 57 columns and 590 nonzeros
Model fingerprint: 0xf32eec78
Model has 47 quadratic constraints
Coefficient statistics:
  Matrix range     [2e-05, 3e+00]
  QMatrix range    [1e+00, 1e+00]
  QLMatrix range   [1e+00, 1e+00]
  Objective range  [8e-03, 7e-01]
  Bounds range     [1e+00, 1e+00]
  RHS range        [1e+00, 1e+00]
Presolve removed 9 rows and 0 columns

Continuous model is non-convex -- solving as a MIP.

Presolve removed 9 rows and 0 columns
Presolve time: 0.00s
Presolved: 189 rows, 57 columns, 443 nonzeros
Presolved model has 47 bilinear constraint(s)
Variable types: 57 continuous, 0 integer (0 binary)

Root relaxation: objective -1.743721e+00, 44 iterations, 0.00 seconds

    Nodes    |    Current Node    |     Objective Bounds      |     Work
 Expl Unexpl |  Obj  Depth IntInf | Incumbent    BestBd   Gap | It/Node Time

     0     0   -1.74372    0   38          -   -1.74372      -     -    0s
H    0     0                       0.6147548   -1.74372   384%     -    0s
     0     0   -1.64739    0    1    0.61475   -1.64739   368%     -    0s
H    0     0                      -1.6450460   -1.64739  0.14%     -    0s
     0     0     cutoff    0        -1.64505   -1.64505  0.00%     -    0s

Cutting planes:
  RLT: 25
  BQP: 3

Explored 1 nodes (76 simplex iterations) in 0.01 seconds
Thread count was 32 (of 72 available processors)

Solution count 2: -1.64505 0.614755 
No other solutions better than -1.64505

Optimal solution found (tolerance 1.00e-04)
Best objective -1.645045978473e+00, best bound -1.645045978473e+00, gap 0.0000%

User-callback calls 78, time in user-callback 0.00 sec
Gurobi Optimizer version 9.1.2 build v9.1.2rc0 (linux64)
Thread count: 36 physical cores, 72 logical processors, using up to 32 threads
Optimize a model with 60 rows, 300 columns and 15500 nonzeros
Model fingerprint: 0x428fb1c7
Model has 250 quadratic constraints
Coefficient statistics:
  Matrix range     [1e-06, 4e+00]
  QMatrix range    [1e+00, 1e+00]
  QLMatrix range   [1e+00, 1e+00]
  Objective range  [3e-04, 1e+00]
  Bounds range     [1e+00, 1e+00]
  RHS range        [1e+00, 1e+00]
Presolve removed 11 rows and 0 columns

Continuous model is non-convex -- solving as a MIP.

Presolve removed 11 rows and 0 columns
Presolve time: 0.01s
Presolved: 1049 rows, 300 columns, 14160 nonzeros
Presolved model has 250 bilinear constraint(s)
Variable types: 300 continuous, 0 integer (0 binary)

Root relaxation: objective -3.040605e+01, 359 iterations, 0.02 seconds

    Nodes    |    Current Node    |     Objective Bounds      |     Work
 Expl Unexpl |  Obj  Depth IntInf | Incumbent    BestBd   Gap | It/Node Time

     0     0  -30.40605    0  199          -  -30.40605      -     -    0s
     0     0  -27.74431    0  196          -  -27.74431      -     -    0s
     0     0  -27.18531    0  133          -  -27.18531      -     -    0s
     0     0  -27.18518    0  133          -  -27.18518      -     -    0s
     0     0  -27.13832    0  142          -  -27.13832      -     -    0s
     0     2  -27.13832    0  142          -  -27.13832      -     -    0s
* 1720  1827              57     -24.4962858  -25.08169  2.39%  58.4    1s
* 1721  1827              57     -24.4962891  -25.08169  2.39%  58.4    1s
* 2677  1604              54     -24.4963001  -24.82749  1.35%  57.7    2s
* 2678  1604              54     -24.4963004  -24.82749  1.35%  57.7    2s
* 2905  1614              43     -24.4965760  -24.82749  1.35%  55.5    2s
* 2966  1615              47     -24.4966318  -24.82749  1.35%  55.0    2s
* 3048  1615              48     -24.4967094  -24.82749  1.35%  54.1    2s
* 3243  1626              46     -24.4967643  -24.82749  1.35%  52.1    2s
* 3245  1626              47     -24.4967732  -24.82749  1.35%  52.0    2s
* 3248  1626              46     -24.4967788  -24.82749  1.35%  52.0    2s
* 3249  1626              46     -24.4967899  -24.82749  1.35%  52.0    2s
* 3445  1680              46     -24.4976259  -24.79409  1.21%  50.3    2s
* 3452  1680              48     -24.4976601  -24.79409  1.21%  50.2    2s
* 3458  1680              48     -24.4976603  -24.79409  1.21%  50.1    2s
* 3747  1732              44     -24.4977065  -24.79409  1.21%  47.6    2s
* 3877  1732              32     -24.4977500  -24.79409  1.21%  46.4    2s
* 3912  1761              42     -24.4981451  -24.79409  1.21%  46.3    2s
* 4203  1799              46     -24.4981465  -24.79409  1.21%  44.0    2s
* 4205  1799              46     -24.4981478  -24.79409  1.21%  44.0    2s
* 4206  1799              45     -24.4981479  -24.79409  1.21%  44.0    2s
* 4329  1799              49     -24.4986194  -24.79409  1.21%  43.2    2s
* 4535  1786              50     -24.5012287  -24.79409  1.20%  41.8    2s
* 4536  1786              50     -24.5012372  -24.79409  1.20%  41.8    2s
* 4542  1786              54     -24.5013505  -24.79409  1.19%  41.8    2s
* 4544  1786              55     -24.5013530  -24.79409  1.19%  41.8    2s
* 4546  1786              56     -24.5013530  -24.79409  1.19%  41.8    2s
* 4547  1786              56     -24.5013531  -24.79409  1.19%  41.7    2s
* 5305  1816              50     -24.5015075  -24.73371  0.95%  37.7    3s
* 5307  1816              48     -24.5015077  -24.73371  0.95%  37.7    3s
* 5569  1838              51     -24.5023236  -24.73371  0.94%  36.5    3s
* 5570  1838              51     -24.5023244  -24.73371  0.94%  36.5    3s
* 5572  1838              51     -24.5023549  -24.73371  0.94%  36.5    3s
* 5573  1838              51     -24.5023551  -24.73371  0.94%  36.5    3s
* 5712  1838              56     -24.5042723  -24.73371  0.94%  35.8    3s
* 5950  1604              39     -24.5043267  -24.73371  0.94%  34.8    3s
* 5956  1604              42     -24.5043675  -24.73371  0.94%  34.8    3s
* 6663  1550              35     -24.5047537  -24.58524  0.33%  32.0    3s
* 7127  1295              38     -24.5048721  -24.52076  0.06%  30.5    3s
* 8569   887              41     -24.5048996  -24.50977  0.02%  26.3    3s
* 9070   655              38     -24.5049071  -24.50977  0.02%  25.1    3s
* 9326   704              42     -24.5049112  -24.50892  0.02%  24.6    3s
* 9327   704              42     -24.5049116  -24.50892  0.02%  24.6    3s
* 9328   704              40     -24.5049158  -24.50892  0.02%  24.6    3s
* 9645   704              48     -24.5049767  -24.50892  0.02%  24.0    3s
* 9725   618              44     -24.5050257  -24.50634  0.01%  23.8    4s
* 9984   618              50     -24.5050266  -24.50592  0.00%  23.3    4s

Cutting planes:
  RLT: 61
  BQP: 5

Explored 10290 nodes (234270 simplex iterations) in 4.02 seconds
Thread count was 32 (of 72 available processors)

Solution count 10: -24.505 -24.505 -24.505 ... -24.5044

Optimal solution found (tolerance 1.00e-04)
Best objective -2.450502658575e+01, best bound -2.450591926958e+01, gap 0.0036%

User-callback calls 21378, time in user-callback 0.00 sec



objective value: -24.505026585748357
objective bound: -24.505919269575863
x_opt: [0.0, 1.0, 1.0, 0.0, 0.0, 0.0, 1.0, 1.0, 0.0, 0.0, 0.25916136406533885, 0.40535376249122157, 0.0, 1.0, 1.0, 1.0, 0.0, 1.0, 0.0, 0.0, 0.0, 1.0, 1.0, 1.0, 0.0, 1.0, 1.0, 1.0, 0.0, 0.867709326887783, 1.0, 0.7588416979261584, 0.0, 0.2039087355786388, 1.0, 1.0, 1.0, 1.0, 0.4529273070750325, 1.0, 0.8821347802427082, 0.15902192657502473, 1.0, 0.0, 0.0, 0.7279737376632335, 0.13351790733224778, 0.03512557745912928, 0.0, 1.0]
GUROBI solution time: 4.017485857009888

